
Gurobi 11.0.2 (win64) logging started Mon Jan 20 20:06:53 2025

Set parameter LogFile to value "log_MTTP1_targetS2_E3_Gurobi.log"
Set parameter Method to value 0

Gurobi 11.0.2 (win64) logging started Mon Jan 20 20:07:08 2025

Set parameter LogFile to value "log_MTTP1_targetS2_E3_Gurobi.log"
Gurobi Optimizer version 11.0.2 build v11.0.2rc0 (win64 - Windows 11.0 (22621.2))

CPU model: 12th Gen Intel(R) Core(TM) i7-12700, instruction set [SSE2|AVX|AVX2]
Thread count: 12 physical cores, 20 logical processors, using up to 20 threads

Optimize a model with 6184983 rows, 7275 columns and 12372639 nonzeros
Model fingerprint: 0x1ed0efc9
Variable types: 0 continuous, 7275 integer (7275 binary)
Coefficient statistics:
  Matrix range     [1e+00, 3e+00]
  Objective range  [1e+00, 1e+00]
  Bounds range     [0e+00, 0e+00]
  RHS range        [1e+00, 2e+00]
Found heuristic solution: objective -0.0000000
Presolve removed 6182976 rows and 6376 columns
Presolve time: 1.37s
Presolved: 2007 rows, 899 columns, 4543 nonzeros
Found heuristic solution: objective 14.0000000
Variable types: 0 continuous, 899 integer (899 binary)
Found heuristic solution: objective 44.0000000

Root relaxation: objective 8.150000e+01, 507 iterations, 0.00 seconds (0.00 work units)

    Nodes    |    Current Node    |     Objective Bounds      |     Work
 Expl Unexpl |  Obj  Depth IntInf | Incumbent    BestBd   Gap | It/Node Time

     0     0   81.50000    0   61   44.00000   81.50000  85.2%     -    2s
H    0     0                      50.0000000   81.50000  63.0%     -    2s
H    0     0                      51.0000000   81.50000  59.8%     -    2s
H    0     0                      54.0000000   81.50000  50.9%     -    2s
H    0     0                      57.0000000   79.22222  39.0%     -    2s
     0     0   79.22222    0  157   57.00000   79.22222  39.0%     -    2s
H    0     0                      59.0000000   79.11111  34.1%     -    2s
     0     0   78.52083    0  162   59.00000   78.52083  33.1%     -    2s
     0     0   78.52083    0  152   59.00000   78.52083  33.1%     -    2s
H    0     0                      60.0000000   77.42222  29.0%     -    2s
H    0     0                      62.0000000   77.42222  24.9%     -    2s
     0     0   77.42222    0  241   62.00000   77.42222  24.9%     -    2s
     0     0   77.38889    0  277   62.00000   77.38889  24.8%     -    2s
     0     0   77.31019    0  285   62.00000   77.31019  24.7%     -    2s
     0     0   77.31019    0  280   62.00000   77.31019  24.7%     -    2s
     0     0   77.02996    0  271   62.00000   77.02996  24.2%     -    2s
H    0     0                      63.0000000   77.02996  22.3%     -    2s
H    0     0                      66.0000000   76.94662  16.6%     -    2s
     0     0   76.94662    0  321   66.00000   76.94662  16.6%     -    2s
     0     0   76.90496    0  340   66.00000   76.90496  16.5%     -    2s
     0     0   76.90496    0  360   66.00000   76.90496  16.5%     -    2s
     0     0   76.79827    0  402   66.00000   76.79827  16.4%     -    2s
     0     0   76.51357    0  404   66.00000   76.51357  15.9%     -    2s
     0     0   76.47344    0  462   66.00000   76.47344  15.9%     -    2s
     0     0   76.47169    0  453   66.00000   76.47169  15.9%     -    2s
     0     0   76.37631    0  438   66.00000   76.37631  15.7%     -    2s
     0     0   76.25392    0  466   66.00000   76.25392  15.5%     -    2s
     0     0   76.25203    0  478   66.00000   76.25203  15.5%     -    2s
     0     0   76.24256    0  455   66.00000   76.24256  15.5%     -    2s
     0     0   76.22446    0  484   66.00000   76.22446  15.5%     -    2s
     0     0   76.22296    0  473   66.00000   76.22296  15.5%     -    2s
     0     0   76.21852    0  477   66.00000   76.21852  15.5%     -    2s
     0     0   76.21852    0  346   66.00000   76.21852  15.5%     -    2s
H    0     0                      67.0000000   76.21852  13.8%     -    2s
     0     2   76.21852    0  342   67.00000   76.21852  13.8%     -    2s
H  136   163                      68.0000000   75.36629  10.8%  55.1    2s
  2211  1820   69.77778   53  627   68.00000   72.53205  6.66%  17.2    5s
  2845  2194   69.96765   30  417   68.00000   71.72226  5.47%  54.6   10s
  5000  2974   69.88179   36  288   68.00000   71.53895  5.20%  78.1   15s
  8601  4239   70.45153   27  444   68.00000   71.26296  4.80%  86.8   20s
 13259  6685   70.25042   23  413   68.00000   71.08594  4.54%  94.0   28s
 15096  7841   69.87967   35  220   68.00000   71.02428  4.45%  94.9   30s
 21414 10904   69.42391   37  282   68.00000   70.88165  4.24%  98.2   35s
 27715 13415   69.92158   34  345   68.00000   70.78392  4.09%   101   40s
 31918 15292   70.02613   30  396   68.00000   70.70819  3.98%   102   45s
 36673 17432   69.84063   33  344   68.00000   70.64432  3.89%   104   50s
 42213 19538     cutoff   35        68.00000   70.59273  3.81%   106   56s
 47049 20836   69.15238   48  270   68.00000   70.53972  3.73%   108   64s
 47053 20839   69.39986   33  492   68.00000   70.53972  3.73%   108   65s
 47170 20917   69.81488   35  571   68.00000   70.53972  3.73%   107   70s
 47287 20995   69.42351   36  658   68.00000   70.53972  3.73%   107   75s
 47369 21058   70.53972   29  643   68.00000   70.53972  3.73%   108   80s
 48139 21313     cutoff   47        68.00000   70.45657  3.61%   111   85s
 50258 21655   69.37970   43  341   68.00000   70.08564  3.07%   115   90s
 53762 21687   69.18734   45  325   68.00000   69.81778  2.67%   120   95s
 57321 21717   69.10149   57  325   68.00000   69.67138  2.46%   126  100s
 60412 21551   69.33198   41  333   68.00000   69.60900  2.37%   133  105s
 64605 20947   69.00895   45  319   68.00000   69.55820  2.29%   140  111s
 66749 20446   69.21017   44  324   68.00000   69.53527  2.26%   143  115s
 69913 19530     cutoff   39        68.00000   69.49697  2.20%   148  120s
 72721 18537     cutoff   42        68.00000   69.45244  2.14%   152  125s
 75839 17112   69.10908   47  347   68.00000   69.40420  2.06%   158  132s
 77049 16494   69.15956   45  317   68.00000   69.39001  2.04%   159  135s
 79433 15231   69.17368   42  410   68.00000   69.34643  1.98%   163  140s
 83684 12244   69.08285   40  349   68.00000   69.27169  1.87%   168  147s
 85140 10872     cutoff   42        68.00000   69.24133  1.83%   170  150s

Cutting planes:
  Gomory: 46
  Cover: 285
  Clique: 4
  MIR: 77
  StrongCG: 4
  Flow cover: 272
  GUB cover: 1
  Inf proof: 4
  Zero half: 445
  RLT: 73

Explored 89762 nodes (15316414 simplex iterations) in 156.89 seconds (166.55 work units)
Thread count was 20 (of 20 available processors)

Solution count 10: 68 67 66 ... 51

Optimal solution found (tolerance 1.00e-04)
Best objective 6.800000000000e+01, best bound 6.800000000000e+01, gap 0.0000%

User-callback calls 199136, time in user-callback 0.06 sec

Gurobi 11.0.2 (win64) logging started Tue Jan 21 08:28:49 2025

Set parameter LogFile to value "log_MTTP1_targetS2_E3_Gurobi.log"
Set parameter Method to value 0

Gurobi 11.0.2 (win64) logging started Tue Jan 21 08:29:03 2025

Set parameter LogFile to value "log_MTTP1_targetS2_E3_Gurobi.log"
Gurobi Optimizer version 11.0.2 build v11.0.2rc0 (win64 - Windows 11.0 (22621.2))

CPU model: 12th Gen Intel(R) Core(TM) i7-12700, instruction set [SSE2|AVX|AVX2]
Thread count: 12 physical cores, 20 logical processors, using up to 20 threads

Optimize a model with 6184983 rows, 7275 columns and 12372639 nonzeros
Model fingerprint: 0x1ed0efc9
Variable types: 0 continuous, 7275 integer (7275 binary)
Coefficient statistics:
  Matrix range     [1e+00, 3e+00]
  Objective range  [1e+00, 1e+00]
  Bounds range     [0e+00, 0e+00]
  RHS range        [1e+00, 2e+00]
Found heuristic solution: objective -0.0000000
Presolve removed 6182976 rows and 6376 columns
Presolve time: 1.41s
Presolved: 2007 rows, 899 columns, 4543 nonzeros
Found heuristic solution: objective 14.0000000
Variable types: 0 continuous, 899 integer (899 binary)
Found heuristic solution: objective 44.0000000

Root relaxation: objective 8.150000e+01, 507 iterations, 0.00 seconds (0.00 work units)

    Nodes    |    Current Node    |     Objective Bounds      |     Work
 Expl Unexpl |  Obj  Depth IntInf | Incumbent    BestBd   Gap | It/Node Time

     0     0   81.50000    0   61   44.00000   81.50000  85.2%     -    2s
H    0     0                      50.0000000   81.50000  63.0%     -    2s
H    0     0                      51.0000000   81.50000  59.8%     -    2s
H    0     0                      54.0000000   81.50000  50.9%     -    2s
H    0     0                      57.0000000   79.22222  39.0%     -    2s
     0     0   79.22222    0  157   57.00000   79.22222  39.0%     -    2s
H    0     0                      59.0000000   79.11111  34.1%     -    2s
     0     0   78.52083    0  162   59.00000   78.52083  33.1%     -    2s
     0     0   78.52083    0  152   59.00000   78.52083  33.1%     -    2s
H    0     0                      60.0000000   77.42222  29.0%     -    2s
H    0     0                      62.0000000   77.42222  24.9%     -    2s
     0     0   77.42222    0  241   62.00000   77.42222  24.9%     -    2s
     0     0   77.38889    0  277   62.00000   77.38889  24.8%     -    2s
     0     0   77.31019    0  285   62.00000   77.31019  24.7%     -    2s
     0     0   77.31019    0  280   62.00000   77.31019  24.7%     -    2s
     0     0   77.02996    0  271   62.00000   77.02996  24.2%     -    2s
H    0     0                      63.0000000   77.02996  22.3%     -    2s
H    0     0                      66.0000000   76.94662  16.6%     -    2s
     0     0   76.94662    0  321   66.00000   76.94662  16.6%     -    2s
     0     0   76.90496    0  340   66.00000   76.90496  16.5%     -    2s
     0     0   76.90496    0  360   66.00000   76.90496  16.5%     -    2s
     0     0   76.79827    0  402   66.00000   76.79827  16.4%     -    2s
     0     0   76.51357    0  404   66.00000   76.51357  15.9%     -    2s
     0     0   76.47344    0  462   66.00000   76.47344  15.9%     -    2s
     0     0   76.47169    0  453   66.00000   76.47169  15.9%     -    2s
     0     0   76.37631    0  438   66.00000   76.37631  15.7%     -    2s
     0     0   76.25392    0  466   66.00000   76.25392  15.5%     -    2s
     0     0   76.25203    0  478   66.00000   76.25203  15.5%     -    2s
     0     0   76.24256    0  455   66.00000   76.24256  15.5%     -    2s
     0     0   76.22446    0  484   66.00000   76.22446  15.5%     -    2s
     0     0   76.22296    0  473   66.00000   76.22296  15.5%     -    2s
     0     0   76.21852    0  477   66.00000   76.21852  15.5%     -    2s
     0     0   76.21852    0  346   66.00000   76.21852  15.5%     -    2s
H    0     0                      67.0000000   76.21852  13.8%     -    2s
     0     2   76.21852    0  342   67.00000   76.21852  13.8%     -    2s
H  136   163                      68.0000000   75.36629  10.8%  55.1    2s
  2203  1815   72.62996   11  564   68.00000   72.62996  6.81%  17.3    5s
  2531  2075   70.50616   23  465   68.00000   71.72226  5.47%  49.4   10s
  4787  2866   70.13651   31  276   68.00000   71.53895  5.20%  76.1   15s
  7937  3829   69.83299   33  364   68.00000   71.28622  4.83%  85.9   20s
 12257  6317   69.69885   35  374   68.00000   71.10735  4.57%  93.0   25s
 13911  7165   70.44121   26  314   68.00000   71.05227  4.49%  94.3   30s
 19913 10154   69.19379   34  318   68.00000   70.92025  4.29%  97.8   35s
 25823 12686   69.12565   39  355   68.00000   70.81580  4.14%   100   40s
 31918 15292   70.02613   30  396   68.00000   70.70819  3.98%   102   46s
 36673 17432   69.84063   33  344   68.00000   70.64432  3.89%   104   51s
 40872 18937   70.39085   24  549   68.00000   70.60347  3.83%   106   55s
 45223 20835   69.43442   38  310   68.00000   70.55092  3.75%   107   61s
 47049 20836   69.15238   48  270   68.00000   70.53972  3.73%   108   66s
 47137 20895   70.13355   27  551   68.00000   70.53972  3.73%   108   70s
 47249 20969   69.15238   48  649   68.00000   70.53972  3.73%   107   75s
 47349 21036   69.15238   48  661   68.00000   70.53972  3.73%   107   80s
 47625 21195   69.57282   38  460   68.00000   70.45657  3.61%   109   85s
 49392 21549   69.47222   41  433   68.00000   70.18224  3.21%   113   90s
 52069 21724   69.47734   39  401   68.00000   69.95024  2.87%   118   95s
 56170 21657     cutoff   38        68.00000   69.69032  2.49%   124  100s
 59485 21592   69.58868   39  471   68.00000   69.62408  2.39%   131  105s
 63228 21179     cutoff   46        68.00000   69.57177  2.31%   137  110s
 66749 20446   69.21017   44  324   68.00000   69.53527  2.26%   143  117s
 69024 19823   69.24324   41  386   68.00000   69.50601  2.21%   147  120s
 71791 18885   69.30459   40  365   68.00000   69.47058  2.16%   151  125s
 74761 17597     cutoff   43        68.00000   69.42206  2.09%   156  130s
 77049 16494   69.15956   45  317   68.00000   69.39001  2.04%   159  137s
 79433 15231   69.17368   42  410   68.00000   69.34643  1.98%   163  142s
 80799 14348   69.08053   39  285   68.00000   69.32159  1.94%   165  145s
 83684 12244   69.08285   40  349   68.00000   69.27169  1.87%   168  150s
 86729  9233   69.06091   43  395   68.00000   69.20473  1.77%   171  155s

Cutting planes:
  Gomory: 46
  Cover: 285
  Clique: 4
  MIR: 77
  StrongCG: 4
  Flow cover: 272
  GUB cover: 1
  Inf proof: 4
  Zero half: 445
  RLT: 73

Explored 89762 nodes (15316414 simplex iterations) in 159.58 seconds (166.55 work units)
Thread count was 20 (of 20 available processors)

Solution count 10: 68 67 66 ... 51

Optimal solution found (tolerance 1.00e-04)
Best objective 6.800000000000e+01, best bound 6.800000000000e+01, gap 0.0000%

User-callback calls 199287, time in user-callback 0.06 sec
